Route 1: 27 69 28 53 40 58 94 13 6 96 60 89
Route 2: 59 99 92 98 85 61 100 37 97 91 93
Route 3: 76 79 77 12 68 80 26 54 4
Route 4: 52 31 7 82 18 88 10 62 70 1
Route 5: 30 51 9 81 33 3 50 24
Route 6: 72 21 73 2 87 42 57 41 74 56
Route 7: 83 45 17 84 5 44 14 43
Route 8: 15 22 23 75 39 67 25 55
Route 9: 63 11 19 49 47 46 36 48
Route 10: 29 71 34 35 78
Route 11: 64 90 66 20 65
Route 12: 95 38 86 16 8 32
Vehicles: 12
Distance: 1469.15
